c Random generated cnf formula, satisfiable: true
p cnf 10 50
10 7 -2 0
1 2 10 0
2 1 3 0
-7 9 -8 0
-8 -5 -2 0
9 -2 -6 0
-1 -4 2 0
7 3 5 0
6 3 -8 0
4 6 9 0
10 5 7 0
-3 -1 -8 0
8 6 4 0
-6 8 10 0
-10 8 -6 0
7 -4 5 0
7 10 8 0
-10 2 6 0
-2 -4 -3 0
4 -2 -6 0
-2 -7 -10 0
-2 1 -5 0
10 -6 -3 0
7 4 3 0
-4 10 -1 0
2 1 5 0
9 8 4 0
3 -6 -1 0
5 1 -10 0
9 7 6 0
-9 -10 -4 0
1 3 9 0
10 6 -3 0
6 -3 4 0
5 2 -10 0
2 5 6 0
-8 4 -6 0
-6 -10 3 0
10 -6 5 0
9 -4 -5 0
10 1 7 0
-1 -8 -10 0
-2 8 -10 0
6 9 -1 0
1 -8 5 0
6 -4 -3 0
-6 -2 3 0
10 -7 -5 0
3 7 -4 0
10 4 6 0
